# Objective value = 0
A_0_0 0
A_0_1 0
A_0_2 0
A_1_0 0
A_1_1 0
A_1_2 0
Y_0_0_1_0 0
Y_0_0_1_1 0
Y_0_0_1_2 0
Y_0_1_1_0 0
Y_0_1_1_1 0
Y_0_1_1_2 0
Y_0_2_1_0 0
Y_0_2_1_1 0
Y_0_2_1_2 0
Y_1_0_0_0 0
Y_1_0_0_1 0
Y_1_0_0_2 0
Y_1_1_0_0 0
Y_1_1_0_1 0
Y_1_1_0_2 0
Y_1_2_0_0 0
Y_1_2_0_1 0
Y_1_2_0_2 0
401780.000000 0
1 0
